31435.54 1
0 155 199 125 161 93 31 104 96 166 97 169 48 138 139 16 89 10 167 22 41 109 88 69 152 172 184 21 192 110 102 57 127 28 190 196 175 198 107 128 35 158 74 66 131 6 170 60 111 73 197 194 100 189 120 108 124 145 45 137 51 7 65 37 185 148 33 80 179 119 171 136 14 90 76 42 53 153 62 15 151 157 183 106 68 133 156 193 79 75 126 160 134 71 56 30 77 98 44 165 32 67 13 186 64 173 159 85 95 142 188 81 182 103 105 132 46 114 11 27 20 55 150 94 147 130 162 25 86 112 54 177 115 101 8 141 9 181 163 113 24 19 5 17 84 63 149 58 39 82 2 176 4 117 144 116 91 140 47 135 18 191 50 118 99 1 143 29 34 36 195 61 123 52 59 43 154 3 92 122 121 70 187 38 72 83 40 146 78 180 12 178 87 164 23 26 174 129 168 49